(declare-datatypes () ((Edge (mk-edge (src String) (dst String))))) ; to have a type edge to manipulate, Edge is from the record (tuple) theory 
(declare-fun delay ((Edge)) Int) ;a function must be provided or later a restriction that the function must return > 0 
(declare-fun bandwidth ((Edge)) Int)  ; a function must be provided or later a restriction that the function must return > 0 
(declare-const edges (Array Int Edge)) ; an array of edges  
(declare-const nodes (Array Int String)) ; an array of nodes 
(declare-fun edges_size () Int) ; a function must be provided or later a restriction that the function must return > 0 
(declare-fun nodes_size () Int) 
(assert (> edges_size 0) ) ; a restriction on the edge size that must be greater than 0 
(assert (> nodes_size 0) ) 
;; end of initial configuration, starts specific graph configs 
(assert (= (store nodes 1 "n1") nodes))
(assert (= (store nodes 2 "n2") nodes))
(assert (= (store nodes 3 "n3") nodes))
(assert (= (store nodes 4 "n4") nodes))
(assert (= (store nodes 5 "n5") nodes))
(assert (= (store nodes 6 "n6") nodes))
(assert (= (store nodes 7 "n7") nodes))
(assert (= (store nodes 8 "n8") nodes))
(assert (= (store nodes 9 "n9") nodes))
(assert (= (store nodes 10 "n10") nodes))
(assert (= (store nodes 11 "n11") nodes))
(assert (= (store nodes 12 "n12") nodes))
(assert (= (store nodes 13 "n13") nodes))
(assert (= (store nodes 14 "n14") nodes))
(assert (= (store nodes 15 "n15") nodes))
(assert (= (store nodes 16 "n16") nodes))
(assert (= (store nodes 17 "n17") nodes))
(assert (= nodes_size 17)) 
(assert (= (store edges 1 (mk-edge "n1" "n2")) edges)) 
(assert (= 3091034 (bandwidth (select edges 1)) ) )
(assert (= 31 (delay (select edges 1)) ) )
(assert (= (store edges 2 (mk-edge "n1" "n3")) edges)) 
(assert (= 1029836 (bandwidth (select edges 2)) ) )
(assert (= 11 (delay (select edges 2)) ) )
(assert (= (store edges 3 (mk-edge "n1" "n4")) edges)) 
(assert (= 3649897 (bandwidth (select edges 3)) ) )
(assert (= 37 (delay (select edges 3)) ) )
(assert (= (store edges 4 (mk-edge "n1" "n5")) edges)) 
(assert (= 2006113 (bandwidth (select edges 4)) ) )
(assert (= 21 (delay (select edges 4)) ) )
(assert (= (store edges 5 (mk-edge "n1" "n6")) edges)) 
(assert (= 8708067 (bandwidth (select edges 5)) ) )
(assert (= 88 (delay (select edges 5)) ) )
(assert (= (store edges 6 (mk-edge "n1" "n9")) edges)) 
(assert (= 2195200 (bandwidth (select edges 6)) ) )
(assert (= 22 (delay (select edges 6)) ) )
(assert (= (store edges 7 (mk-edge "n1" "n12")) edges)) 
(assert (= 981029 (bandwidth (select edges 7)) ) )
(assert (= 10 (delay (select edges 7)) ) )
(assert (= (store edges 8 (mk-edge "n1" "n14")) edges)) 
(assert (= 8759467 (bandwidth (select edges 8)) ) )
(assert (= 88 (delay (select edges 8)) ) )
(assert (= (store edges 9 (mk-edge "n1" "n15")) edges)) 
(assert (= 736874 (bandwidth (select edges 9)) ) )
(assert (= 8 (delay (select edges 9)) ) )
(assert (= (store edges 10 (mk-edge "n1" "n17")) edges)) 
(assert (= 3805658 (bandwidth (select edges 10)) ) )
(assert (= 39 (delay (select edges 10)) ) )
(assert (= (store edges 11 (mk-edge "n2" "n1")) edges)) 
(assert (= 8335068 (bandwidth (select edges 11)) ) )
(assert (= 84 (delay (select edges 11)) ) )
(assert (= (store edges 12 (mk-edge "n2" "n3")) edges)) 
(assert (= 9998441 (bandwidth (select edges 12)) ) )
(assert (= 100 (delay (select edges 12)) ) )
(assert (= (store edges 13 (mk-edge "n2" "n4")) edges)) 
(assert (= 3284671 (bandwidth (select edges 13)) ) )
(assert (= 33 (delay (select edges 13)) ) )
(assert (= (store edges 14 (mk-edge "n2" "n5")) edges)) 
(assert (= 132623 (bandwidth (select edges 14)) ) )
(assert (= 2 (delay (select edges 14)) ) )
(assert (= (store edges 15 (mk-edge "n2" "n6")) edges)) 
(assert (= 3519800 (bandwidth (select edges 15)) ) )
(assert (= 36 (delay (select edges 15)) ) )
(assert (= (store edges 16 (mk-edge "n2" "n7")) edges)) 
(assert (= 1131865 (bandwidth (select edges 16)) ) )
(assert (= 12 (delay (select edges 16)) ) )
(assert (= (store edges 17 (mk-edge "n2" "n9")) edges)) 
(assert (= 6827682 (bandwidth (select edges 17)) ) )
(assert (= 69 (delay (select edges 17)) ) )
(assert (= (store edges 18 (mk-edge "n2" "n10")) edges)) 
(assert (= 1354774 (bandwidth (select edges 18)) ) )
(assert (= 14 (delay (select edges 18)) ) )
(assert (= (store edges 19 (mk-edge "n2" "n11")) edges)) 
(assert (= 425465 (bandwidth (select edges 19)) ) )
(assert (= 5 (delay (select edges 19)) ) )
(assert (= (store edges 20 (mk-edge "n2" "n12")) edges)) 
(assert (= 7397914 (bandwidth (select edges 20)) ) )
(assert (= 74 (delay (select edges 20)) ) )
(assert (= (store edges 21 (mk-edge "n2" "n14")) edges)) 
(assert (= 14059270 (bandwidth (select edges 21)) ) )
(assert (= 141 (delay (select edges 21)) ) )
(assert (= (store edges 22 (mk-edge "n2" "n15")) edges)) 
(assert (= 817153 (bandwidth (select edges 22)) ) )
(assert (= 9 (delay (select edges 22)) ) )
(assert (= (store edges 23 (mk-edge "n2" "n16")) edges)) 
(assert (= 521638 (bandwidth (select edges 23)) ) )
(assert (= 6 (delay (select edges 23)) ) )
(assert (= (store edges 24 (mk-edge "n2" "n17")) edges)) 
(assert (= 74413 (bandwidth (select edges 24)) ) )
(assert (= 1 (delay (select edges 24)) ) )
(assert (= (store edges 25 (mk-edge "n3" "n1")) edges)) 
(assert (= 1225819 (bandwidth (select edges 25)) ) )
(assert (= 13 (delay (select edges 25)) ) )
(assert (= (store edges 26 (mk-edge "n3" "n2")) edges)) 
(assert (= 4546416 (bandwidth (select edges 26)) ) )
(assert (= 46 (delay (select edges 26)) ) )
(assert (= (store edges 27 (mk-edge "n3" "n4")) edges)) 
(assert (= 988847 (bandwidth (select edges 27)) ) )
(assert (= 10 (delay (select edges 27)) ) )
(assert (= (store edges 28 (mk-edge "n3" "n5")) edges)) 
(assert (= 5393638 (bandwidth (select edges 28)) ) )
(assert (= 54 (delay (select edges 28)) ) )
(assert (= (store edges 29 (mk-edge "n3" "n7")) edges)) 
(assert (= 28449310 (bandwidth (select edges 29)) ) )
(assert (= 285 (delay (select edges 29)) ) )
(assert (= (store edges 30 (mk-edge "n3" "n8")) edges)) 
(assert (= 1039211 (bandwidth (select edges 30)) ) )
(assert (= 11 (delay (select edges 30)) ) )
(assert (= (store edges 31 (mk-edge "n3" "n10")) edges)) 
(assert (= 1757825 (bandwidth (select edges 31)) ) )
(assert (= 18 (delay (select edges 31)) ) )
(assert (= (store edges 32 (mk-edge "n3" "n11")) edges)) 
(assert (= 3208756 (bandwidth (select edges 32)) ) )
(assert (= 33 (delay (select edges 32)) ) )
(assert (= (store edges 33 (mk-edge "n3" "n12")) edges)) 
(assert (= 985753 (bandwidth (select edges 33)) ) )
(assert (= 10 (delay (select edges 33)) ) )
(assert (= (store edges 34 (mk-edge "n3" "n15")) edges)) 
(assert (= 1469834 (bandwidth (select edges 34)) ) )
(assert (= 15 (delay (select edges 34)) ) )
(assert (= (store edges 35 (mk-edge "n4" "n1")) edges)) 
(assert (= 27262443 (bandwidth (select edges 35)) ) )
(assert (= 273 (delay (select edges 35)) ) )
(assert (= (store edges 36 (mk-edge "n4" "n2")) edges)) 
(assert (= 2169951 (bandwidth (select edges 36)) ) )
(assert (= 22 (delay (select edges 36)) ) )
(assert (= (store edges 37 (mk-edge "n4" "n3")) edges)) 
(assert (= 1894611 (bandwidth (select edges 37)) ) )
(assert (= 19 (delay (select edges 37)) ) )
(assert (= (store edges 38 (mk-edge "n4" "n5")) edges)) 
(assert (= 3992661 (bandwidth (select edges 38)) ) )
(assert (= 40 (delay (select edges 38)) ) )
(assert (= (store edges 39 (mk-edge "n4" "n6")) edges)) 
(assert (= 1952962 (bandwidth (select edges 39)) ) )
(assert (= 20 (delay (select edges 39)) ) )
(assert (= (store edges 40 (mk-edge "n4" "n7")) edges)) 
(assert (= 12078851 (bandwidth (select edges 40)) ) )
(assert (= 121 (delay (select edges 40)) ) )
(assert (= (store edges 41 (mk-edge "n4" "n12")) edges)) 
(assert (= 515180 (bandwidth (select edges 41)) ) )
(assert (= 6 (delay (select edges 41)) ) )
(assert (= (store edges 42 (mk-edge "n4" "n13")) edges)) 
(assert (= 471942 (bandwidth (select edges 42)) ) )
(assert (= 5 (delay (select edges 42)) ) )
(assert (= (store edges 43 (mk-edge "n4" "n15")) edges)) 
(assert (= 5059866 (bandwidth (select edges 43)) ) )
(assert (= 51 (delay (select edges 43)) ) )
(assert (= (store edges 44 (mk-edge "n4" "n16")) edges)) 
(assert (= 91722 (bandwidth (select edges 44)) ) )
(assert (= 1 (delay (select edges 44)) ) )
(assert (= (store edges 45 (mk-edge "n5" "n1")) edges)) 
(assert (= 6711547 (bandwidth (select edges 45)) ) )
(assert (= 68 (delay (select edges 45)) ) )
(assert (= (store edges 46 (mk-edge "n5" "n2")) edges)) 
(assert (= 186698 (bandwidth (select edges 46)) ) )
(assert (= 2 (delay (select edges 46)) ) )
(assert (= (store edges 47 (mk-edge "n5" "n3")) edges)) 
(assert (= 9740009 (bandwidth (select edges 47)) ) )
(assert (= 98 (delay (select edges 47)) ) )
(assert (= (store edges 48 (mk-edge "n5" "n4")) edges)) 
(assert (= 6939826 (bandwidth (select edges 48)) ) )
(assert (= 70 (delay (select edges 48)) ) )
(assert (= (store edges 49 (mk-edge "n5" "n6")) edges)) 
(assert (= 5729110 (bandwidth (select edges 49)) ) )
(assert (= 58 (delay (select edges 49)) ) )
(assert (= (store edges 50 (mk-edge "n5" "n8")) edges)) 
(assert (= 25475481 (bandwidth (select edges 50)) ) )
(assert (= 255 (delay (select edges 50)) ) )
(assert (= (store edges 51 (mk-edge "n5" "n10")) edges)) 
(assert (= 12381238 (bandwidth (select edges 51)) ) )
(assert (= 124 (delay (select edges 51)) ) )
(assert (= (store edges 52 (mk-edge "n5" "n11")) edges)) 
(assert (= 24032763 (bandwidth (select edges 52)) ) )
(assert (= 241 (delay (select edges 52)) ) )
(assert (= (store edges 53 (mk-edge "n5" "n12")) edges)) 
(assert (= 150504 (bandwidth (select edges 53)) ) )
(assert (= 2 (delay (select edges 53)) ) )
(assert (= (store edges 54 (mk-edge "n5" "n13")) edges)) 
(assert (= 9575114 (bandwidth (select edges 54)) ) )
(assert (= 96 (delay (select edges 54)) ) )
(assert (= (store edges 55 (mk-edge "n5" "n14")) edges)) 
(assert (= 17702162 (bandwidth (select edges 55)) ) )
(assert (= 178 (delay (select edges 55)) ) )
(assert (= (store edges 56 (mk-edge "n6" "n1")) edges)) 
(assert (= 26507454 (bandwidth (select edges 56)) ) )
(assert (= 266 (delay (select edges 56)) ) )
(assert (= (store edges 57 (mk-edge "n6" "n2")) edges)) 
(assert (= 2357964 (bandwidth (select edges 57)) ) )
(assert (= 24 (delay (select edges 57)) ) )
(assert (= (store edges 58 (mk-edge "n6" "n4")) edges)) 
(assert (= 336858 (bandwidth (select edges 58)) ) )
(assert (= 4 (delay (select edges 58)) ) )
(assert (= (store edges 59 (mk-edge "n6" "n5")) edges)) 
(assert (= 6422702 (bandwidth (select edges 59)) ) )
(assert (= 65 (delay (select edges 59)) ) )
(assert (= (store edges 60 (mk-edge "n6" "n8")) edges)) 
(assert (= 8975495 (bandwidth (select edges 60)) ) )
(assert (= 90 (delay (select edges 60)) ) )
(assert (= (store edges 61 (mk-edge "n6" "n10")) edges)) 
(assert (= 6769768 (bandwidth (select edges 61)) ) )
(assert (= 68 (delay (select edges 61)) ) )
(assert (= (store edges 62 (mk-edge "n6" "n11")) edges)) 
(assert (= 556379 (bandwidth (select edges 62)) ) )
(assert (= 6 (delay (select edges 62)) ) )
(assert (= (store edges 63 (mk-edge "n6" "n12")) edges)) 
(assert (= 1947194 (bandwidth (select edges 63)) ) )
(assert (= 20 (delay (select edges 63)) ) )
(assert (= (store edges 64 (mk-edge "n6" "n14")) edges)) 
(assert (= 1143576 (bandwidth (select edges 64)) ) )
(assert (= 12 (delay (select edges 64)) ) )
(assert (= (store edges 65 (mk-edge "n6" "n16")) edges)) 
(assert (= 19735091 (bandwidth (select edges 65)) ) )
(assert (= 198 (delay (select edges 65)) ) )
(assert (= (store edges 66 (mk-edge "n7" "n2")) edges)) 
(assert (= 62319 (bandwidth (select edges 66)) ) )
(assert (= 1 (delay (select edges 66)) ) )
(assert (= (store edges 67 (mk-edge "n7" "n3")) edges)) 
(assert (= 22169983 (bandwidth (select edges 67)) ) )
(assert (= 222 (delay (select edges 67)) ) )
(assert (= (store edges 68 (mk-edge "n7" "n4")) edges)) 
(assert (= 3931491 (bandwidth (select edges 68)) ) )
(assert (= 40 (delay (select edges 68)) ) )
(assert (= (store edges 69 (mk-edge "n7" "n8")) edges)) 
(assert (= 4448261 (bandwidth (select edges 69)) ) )
(assert (= 45 (delay (select edges 69)) ) )
(assert (= (store edges 70 (mk-edge "n7" "n9")) edges)) 
(assert (= 1129993 (bandwidth (select edges 70)) ) )
(assert (= 12 (delay (select edges 70)) ) )
(assert (= (store edges 71 (mk-edge "n7" "n11")) edges)) 
(assert (= 949721 (bandwidth (select edges 71)) ) )
(assert (= 10 (delay (select edges 71)) ) )
(assert (= (store edges 72 (mk-edge "n7" "n12")) edges)) 
(assert (= 5783578 (bandwidth (select edges 72)) ) )
(assert (= 58 (delay (select edges 72)) ) )
(assert (= (store edges 73 (mk-edge "n7" "n16")) edges)) 
(assert (= 1610156 (bandwidth (select edges 73)) ) )
(assert (= 17 (delay (select edges 73)) ) )
(assert (= (store edges 74 (mk-edge "n7" "n17")) edges)) 
(assert (= 9409189 (bandwidth (select edges 74)) ) )
(assert (= 95 (delay (select edges 74)) ) )
(assert (= (store edges 75 (mk-edge "n8" "n3")) edges)) 
(assert (= 1875184 (bandwidth (select edges 75)) ) )
(assert (= 19 (delay (select edges 75)) ) )
(assert (= (store edges 76 (mk-edge "n8" "n5")) edges)) 
(assert (= 4927038 (bandwidth (select edges 76)) ) )
(assert (= 50 (delay (select edges 76)) ) )
(assert (= (store edges 77 (mk-edge "n8" "n6")) edges)) 
(assert (= 13317538 (bandwidth (select edges 77)) ) )
(assert (= 134 (delay (select edges 77)) ) )
(assert (= (store edges 78 (mk-edge "n8" "n7")) edges)) 
(assert (= 9920662 (bandwidth (select edges 78)) ) )
(assert (= 100 (delay (select edges 78)) ) )
(assert (= (store edges 79 (mk-edge "n8" "n9")) edges)) 
(assert (= 1544608 (bandwidth (select edges 79)) ) )
(assert (= 16 (delay (select edges 79)) ) )
(assert (= (store edges 80 (mk-edge "n8" "n10")) edges)) 
(assert (= 587075 (bandwidth (select edges 80)) ) )
(assert (= 6 (delay (select edges 80)) ) )
(assert (= (store edges 81 (mk-edge "n8" "n11")) edges)) 
(assert (= 16859708 (bandwidth (select edges 81)) ) )
(assert (= 169 (delay (select edges 81)) ) )
(assert (= (store edges 82 (mk-edge "n8" "n17")) edges)) 
(assert (= 326085 (bandwidth (select edges 82)) ) )
(assert (= 4 (delay (select edges 82)) ) )
(assert (= (store edges 83 (mk-edge "n9" "n1")) edges)) 
(assert (= 3157562 (bandwidth (select edges 83)) ) )
(assert (= 32 (delay (select edges 83)) ) )
(assert (= (store edges 84 (mk-edge "n9" "n2")) edges)) 
(assert (= 9850577 (bandwidth (select edges 84)) ) )
(assert (= 99 (delay (select edges 84)) ) )
(assert (= (store edges 85 (mk-edge "n9" "n7")) edges)) 
(assert (= 709144 (bandwidth (select edges 85)) ) )
(assert (= 8 (delay (select edges 85)) ) )
(assert (= (store edges 86 (mk-edge "n9" "n8")) edges)) 
(assert (= 1252559 (bandwidth (select edges 86)) ) )
(assert (= 13 (delay (select edges 86)) ) )
(assert (= (store edges 87 (mk-edge "n9" "n10")) edges)) 
(assert (= 26872768 (bandwidth (select edges 87)) ) )
(assert (= 269 (delay (select edges 87)) ) )
(assert (= (store edges 88 (mk-edge "n9" "n11")) edges)) 
(assert (= 8536020 (bandwidth (select edges 88)) ) )
(assert (= 86 (delay (select edges 88)) ) )
(assert (= (store edges 89 (mk-edge "n9" "n13")) edges)) 
(assert (= 6698004 (bandwidth (select edges 89)) ) )
(assert (= 67 (delay (select edges 89)) ) )
(assert (= (store edges 90 (mk-edge "n9" "n14")) edges)) 
(assert (= 395301 (bandwidth (select edges 90)) ) )
(assert (= 4 (delay (select edges 90)) ) )
(assert (= (store edges 91 (mk-edge "n9" "n15")) edges)) 
(assert (= 655741 (bandwidth (select edges 91)) ) )
(assert (= 7 (delay (select edges 91)) ) )
(assert (= (store edges 92 (mk-edge "n9" "n16")) edges)) 
(assert (= 1409297 (bandwidth (select edges 92)) ) )
(assert (= 15 (delay (select edges 92)) ) )
(assert (= (store edges 93 (mk-edge "n10" "n2")) edges)) 
(assert (= 900980 (bandwidth (select edges 93)) ) )
(assert (= 10 (delay (select edges 93)) ) )
(assert (= (store edges 94 (mk-edge "n10" "n3")) edges)) 
(assert (= 259062 (bandwidth (select edges 94)) ) )
(assert (= 3 (delay (select edges 94)) ) )
(assert (= (store edges 95 (mk-edge "n10" "n5")) edges)) 
(assert (= 29366017 (bandwidth (select edges 95)) ) )
(assert (= 294 (delay (select edges 95)) ) )
(assert (= (store edges 96 (mk-edge "n10" "n6")) edges)) 
(assert (= 3988111 (bandwidth (select edges 96)) ) )
(assert (= 40 (delay (select edges 96)) ) )
(assert (= (store edges 97 (mk-edge "n10" "n8")) edges)) 
(assert (= 874428 (bandwidth (select edges 97)) ) )
(assert (= 9 (delay (select edges 97)) ) )
(assert (= (store edges 98 (mk-edge "n10" "n9")) edges)) 
(assert (= 23812571 (bandwidth (select edges 98)) ) )
(assert (= 239 (delay (select edges 98)) ) )
(assert (= (store edges 99 (mk-edge "n10" "n13")) edges)) 
(assert (= 2615923 (bandwidth (select edges 99)) ) )
(assert (= 27 (delay (select edges 99)) ) )
(assert (= (store edges 100 (mk-edge "n10" "n17")) edges)) 
(assert (= 15429175 (bandwidth (select edges 100)) ) )
(assert (= 155 (delay (select edges 100)) ) )
(assert (= (store edges 101 (mk-edge "n11" "n2")) edges)) 
(assert (= 1872174 (bandwidth (select edges 101)) ) )
(assert (= 19 (delay (select edges 101)) ) )
(assert (= (store edges 102 (mk-edge "n11" "n3")) edges)) 
(assert (= 9842797 (bandwidth (select edges 102)) ) )
(assert (= 99 (delay (select edges 102)) ) )
(assert (= (store edges 103 (mk-edge "n11" "n5")) edges)) 
(assert (= 27053123 (bandwidth (select edges 103)) ) )
(assert (= 271 (delay (select edges 103)) ) )
(assert (= (store edges 104 (mk-edge "n11" "n6")) edges)) 
(assert (= 1915132 (bandwidth (select edges 104)) ) )
(assert (= 20 (delay (select edges 104)) ) )
(assert (= (store edges 105 (mk-edge "n11" "n7")) edges)) 
(assert (= 1060842 (bandwidth (select edges 105)) ) )
(assert (= 11 (delay (select edges 105)) ) )
(assert (= (store edges 106 (mk-edge "n11" "n8")) edges)) 
(assert (= 24165270 (bandwidth (select edges 106)) ) )
(assert (= 242 (delay (select edges 106)) ) )
(assert (= (store edges 107 (mk-edge "n11" "n9")) edges)) 
(assert (= 6781289 (bandwidth (select edges 107)) ) )
(assert (= 68 (delay (select edges 107)) ) )
(assert (= (store edges 108 (mk-edge "n11" "n12")) edges)) 
(assert (= 899368 (bandwidth (select edges 108)) ) )
(assert (= 9 (delay (select edges 108)) ) )
(assert (= (store edges 109 (mk-edge "n11" "n13")) edges)) 
(assert (= 993119 (bandwidth (select edges 109)) ) )
(assert (= 10 (delay (select edges 109)) ) )
(assert (= (store edges 110 (mk-edge "n11" "n16")) edges)) 
(assert (= 1089143 (bandwidth (select edges 110)) ) )
(assert (= 11 (delay (select edges 110)) ) )
(assert (= (store edges 111 (mk-edge "n11" "n17")) edges)) 
(assert (= 1493166 (bandwidth (select edges 111)) ) )
(assert (= 15 (delay (select edges 111)) ) )
(assert (= (store edges 112 (mk-edge "n12" "n1")) edges)) 
(assert (= 455198 (bandwidth (select edges 112)) ) )
(assert (= 5 (delay (select edges 112)) ) )
(assert (= (store edges 113 (mk-edge "n12" "n2")) edges)) 
(assert (= 12905996 (bandwidth (select edges 113)) ) )
(assert (= 130 (delay (select edges 113)) ) )
(assert (= (store edges 114 (mk-edge "n12" "n3")) edges)) 
(assert (= 149891 (bandwidth (select edges 114)) ) )
(assert (= 2 (delay (select edges 114)) ) )
(assert (= (store edges 115 (mk-edge "n12" "n4")) edges)) 
(assert (= 1677247 (bandwidth (select edges 115)) ) )
(assert (= 17 (delay (select edges 115)) ) )
(assert (= (store edges 116 (mk-edge "n12" "n5")) edges)) 
(assert (= 1211485 (bandwidth (select edges 116)) ) )
(assert (= 13 (delay (select edges 116)) ) )
(assert (= (store edges 117 (mk-edge "n12" "n6")) edges)) 
(assert (= 652135 (bandwidth (select edges 117)) ) )
(assert (= 7 (delay (select edges 117)) ) )
(assert (= (store edges 118 (mk-edge "n12" "n7")) edges)) 
(assert (= 670643 (bandwidth (select edges 118)) ) )
(assert (= 7 (delay (select edges 118)) ) )
(assert (= (store edges 119 (mk-edge "n12" "n11")) edges)) 
(assert (= 568646 (bandwidth (select edges 119)) ) )
(assert (= 6 (delay (select edges 119)) ) )
(assert (= (store edges 120 (mk-edge "n12" "n14")) edges)) 
(assert (= 658524 (bandwidth (select edges 120)) ) )
(assert (= 7 (delay (select edges 120)) ) )
(assert (= (store edges 121 (mk-edge "n12" "n17")) edges)) 
(assert (= 1791883 (bandwidth (select edges 121)) ) )
(assert (= 18 (delay (select edges 121)) ) )
(assert (= (store edges 122 (mk-edge "n13" "n4")) edges)) 
(assert (= 523010 (bandwidth (select edges 122)) ) )
(assert (= 6 (delay (select edges 122)) ) )
(assert (= (store edges 123 (mk-edge "n13" "n5")) edges)) 
(assert (= 6654597 (bandwidth (select edges 123)) ) )
(assert (= 67 (delay (select edges 123)) ) )
(assert (= (store edges 124 (mk-edge "n13" "n9")) edges)) 
(assert (= 4135913 (bandwidth (select edges 124)) ) )
(assert (= 42 (delay (select edges 124)) ) )
(assert (= (store edges 125 (mk-edge "n13" "n10")) edges)) 
(assert (= 6573537 (bandwidth (select edges 125)) ) )
(assert (= 66 (delay (select edges 125)) ) )
(assert (= (store edges 126 (mk-edge "n13" "n11")) edges)) 
(assert (= 1425407 (bandwidth (select edges 126)) ) )
(assert (= 15 (delay (select edges 126)) ) )
(assert (= (store edges 127 (mk-edge "n13" "n16")) edges)) 
(assert (= 1684765 (bandwidth (select edges 127)) ) )
(assert (= 17 (delay (select edges 127)) ) )
(assert (= (store edges 128 (mk-edge "n13" "n17")) edges)) 
(assert (= 145845 (bandwidth (select edges 128)) ) )
(assert (= 2 (delay (select edges 128)) ) )
(assert (= (store edges 129 (mk-edge "n14" "n1")) edges)) 
(assert (= 25039211 (bandwidth (select edges 129)) ) )
(assert (= 251 (delay (select edges 129)) ) )
(assert (= (store edges 130 (mk-edge "n14" "n2")) edges)) 
(assert (= 13081184 (bandwidth (select edges 130)) ) )
(assert (= 131 (delay (select edges 130)) ) )
(assert (= (store edges 131 (mk-edge "n14" "n5")) edges)) 
(assert (= 1897974 (bandwidth (select edges 131)) ) )
(assert (= 19 (delay (select edges 131)) ) )
(assert (= (store edges 132 (mk-edge "n14" "n6")) edges)) 
(assert (= 17487250 (bandwidth (select edges 132)) ) )
(assert (= 175 (delay (select edges 132)) ) )
(assert (= (store edges 133 (mk-edge "n14" "n9")) edges)) 
(assert (= 5043273 (bandwidth (select edges 133)) ) )
(assert (= 51 (delay (select edges 133)) ) )
(assert (= (store edges 134 (mk-edge "n14" "n12")) edges)) 
(assert (= 1600956 (bandwidth (select edges 134)) ) )
(assert (= 17 (delay (select edges 134)) ) )
(assert (= (store edges 135 (mk-edge "n14" "n16")) edges)) 
(assert (= 1860068 (bandwidth (select edges 135)) ) )
(assert (= 19 (delay (select edges 135)) ) )
(assert (= (store edges 136 (mk-edge "n15" "n1")) edges)) 
(assert (= 1931221 (bandwidth (select edges 136)) ) )
(assert (= 20 (delay (select edges 136)) ) )
(assert (= (store edges 137 (mk-edge "n15" "n2")) edges)) 
(assert (= 334410 (bandwidth (select edges 137)) ) )
(assert (= 4 (delay (select edges 137)) ) )
(assert (= (store edges 138 (mk-edge "n15" "n3")) edges)) 
(assert (= 1864718 (bandwidth (select edges 138)) ) )
(assert (= 19 (delay (select edges 138)) ) )
(assert (= (store edges 139 (mk-edge "n15" "n4")) edges)) 
(assert (= 6288318 (bandwidth (select edges 139)) ) )
(assert (= 63 (delay (select edges 139)) ) )
(assert (= (store edges 140 (mk-edge "n15" "n9")) edges)) 
(assert (= 1069302 (bandwidth (select edges 140)) ) )
(assert (= 11 (delay (select edges 140)) ) )
(assert (= (store edges 141 (mk-edge "n15" "n16")) edges)) 
(assert (= 23561091 (bandwidth (select edges 141)) ) )
(assert (= 236 (delay (select edges 141)) ) )
(assert (= (store edges 142 (mk-edge "n16" "n2")) edges)) 
(assert (= 334 (bandwidth (select edges 142)) ) )
(assert (= 1 (delay (select edges 142)) ) )
(assert (= (store edges 143 (mk-edge "n16" "n4")) edges)) 
(assert (= 4410850 (bandwidth (select edges 143)) ) )
(assert (= 45 (delay (select edges 143)) ) )
(assert (= (store edges 144 (mk-edge "n16" "n6")) edges)) 
(assert (= 22582548 (bandwidth (select edges 144)) ) )
(assert (= 226 (delay (select edges 144)) ) )
(assert (= (store edges 145 (mk-edge "n16" "n7")) edges)) 
(assert (= 7311309 (bandwidth (select edges 145)) ) )
(assert (= 74 (delay (select edges 145)) ) )
(assert (= (store edges 146 (mk-edge "n16" "n9")) edges)) 
(assert (= 1595904 (bandwidth (select edges 146)) ) )
(assert (= 16 (delay (select edges 146)) ) )
(assert (= (store edges 147 (mk-edge "n16" "n11")) edges)) 
(assert (= 983041 (bandwidth (select edges 147)) ) )
(assert (= 10 (delay (select edges 147)) ) )
(assert (= (store edges 148 (mk-edge "n16" "n13")) edges)) 
(assert (= 524137 (bandwidth (select edges 148)) ) )
(assert (= 6 (delay (select edges 148)) ) )
(assert (= (store edges 149 (mk-edge "n16" "n14")) edges)) 
(assert (= 1761205 (bandwidth (select edges 149)) ) )
(assert (= 18 (delay (select edges 149)) ) )
(assert (= (store edges 150 (mk-edge "n16" "n15")) edges)) 
(assert (= 25951791 (bandwidth (select edges 150)) ) )
(assert (= 260 (delay (select edges 150)) ) )
(assert (= (store edges 151 (mk-edge "n16" "n17")) edges)) 
(assert (= 1023450 (bandwidth (select edges 151)) ) )
(assert (= 11 (delay (select edges 151)) ) )
(assert (= (store edges 152 (mk-edge "n17" "n1")) edges)) 
(assert (= 6143639 (bandwidth (select edges 152)) ) )
(assert (= 62 (delay (select edges 152)) ) )
(assert (= (store edges 153 (mk-edge "n17" "n2")) edges)) 
(assert (= 1633319 (bandwidth (select edges 153)) ) )
(assert (= 17 (delay (select edges 153)) ) )
(assert (= (store edges 154 (mk-edge "n17" "n7")) edges)) 
(assert (= 7746575 (bandwidth (select edges 154)) ) )
(assert (= 78 (delay (select edges 154)) ) )
(assert (= (store edges 155 (mk-edge "n17" "n8")) edges)) 
(assert (= 1342910 (bandwidth (select edges 155)) ) )
(assert (= 14 (delay (select edges 155)) ) )
(assert (= (store edges 156 (mk-edge "n17" "n10")) edges)) 
(assert (= 19039087 (bandwidth (select edges 156)) ) )
(assert (= 191 (delay (select edges 156)) ) )
(assert (= (store edges 157 (mk-edge "n17" "n11")) edges)) 
(assert (= 1877552 (bandwidth (select edges 157)) ) )
(assert (= 19 (delay (select edges 157)) ) )
(assert (= (store edges 158 (mk-edge "n17" "n12")) edges)) 
(assert (= 80085 (bandwidth (select edges 158)) ) )
(assert (= 1 (delay (select edges 158)) ) )
(assert (= (store edges 159 (mk-edge "n17" "n13")) edges)) 
(assert (= 772492 (bandwidth (select edges 159)) ) )
(assert (= 8 (delay (select edges 159)) ) )
(assert (= (store edges 160 (mk-edge "n17" "n16")) edges)) 
(assert (= 106560 (bandwidth (select edges 160)) ) )
(assert (= 2 (delay (select edges 160)) ) )
(assert (= edges_size 160)) 
;; end of graph configuration, propery verification starts
